54134
0 32 7621
32 41 4807
41 1 1722
1 13 433
13 8 471
8 11 723
11 17 768
17 3 606
3 29 380
29 46 944
46 52 1053
52 22 388
22 28 687
28 20 516
20 16 638
16 47 415
47 18 897
18 43 1282
43 37 690
37 7 368
7 31 678
31 40 362
40 12 686
12 4 723
4 34 323
34 23 296
23 49 868
49 19 763
19 6 846
6 36 517
36 50 590
50 39 1042
39 42 1279
42 2 1096
2 5 385
5 27 404
27 54 487
54 48 711
48 25 560
25 53 967
53 33 401
33 9 925
9 21 117
21 15 737
15 38 451
38 45 214
45 35 402
35 14 679
14 51 631
51 44 722
44 10 436
10 24 545
24 30 299
30 26 4460
26 0 4123
